language ESSENCE' 1.0

letting fixed be 
[
    [7,4,8,3,5,9,1,2,6],
    [0,0,1,7,2,6,8,4,0],
    [0,2,6,4,0,0,7,0,5],
    [2,0,0,0,4,0,0,8,7],
    [0,7,4,0,3,0,0,0,0],
    [1,8,0,0,7,0,0,0,4],
    [4,0,2,0,0,7,6,0,8],
    [0,1,7,0,0,3,4,0,2],
    [8,0,5,2,0,4,0,7,0]
]